419
68
94
45
70
32
73
37
115
76
133
65
52
183
46
29
131
45
111
0
35
66
28
68
80
104
43
402
158
46
76
181
251
67
129
0
110
0
46
36
63
34
32
213
195
242
139
166
83
180
318
38
0
222
70
102
220
159
117
42
30
69
117
57
0
51
152
381
173
114
191
147
44
67
180
43
64
254
53
264
231
35
86
34
112
0
44
60
232
33
163
41
513
164
89
33
96
73
42
75
